column=9;
row=9;
left=[0, 0, 0, 0, 3, 0, 0, 0, 1];
right=[0, 0, 0, 2, 0, 3, 0, 0, 4];
top=[0, 0, 0, 0, 0, 0, 3, 1, 3];
bottom=[0, 0, 3, 2, 0, 0, 0, 0, 0];
Board=[|3,0,1,6,7,8,2,0,4|0,7,0,5,2,0,0,0,3|2,9,0,0,0,0,0,0,0|0,0,9,0,0,3,0,4,7|0,0,3,4,0,6,0,2,0|0,0,4,0,0,0,0,0,0|1,0,7,0,5,4,0,0,0|0,0,0,0,0,0,0,1,5|9,4,0,0,0,2,0,0,0|]